benchmark/results/graph__15-1000-0.10-04_8/error_log/graph__15-1000-0.10-04_8_Quinton_Benders_primal_sub_ERRORLOG.lp
\ This file has been generated by DOcplex
\ ENCODING=ISO-8859-1
\Problem name: Quinton Benders_primal_sub

Maximize
 obj: tau
Subject To
 c1: tau <= 0.001763668430
 c2: y_a0_proc_0 + y_a0_proc_3 - tau = 0
 c3: y_a0_proc_0 <= 1
 c4: y_a0_proc_3 <= 0
 c5: tau <= 0.001351351351
 c6: y_a1_proc_0 + y_a1_proc_1 + y_a1_proc_2 + y_a1_proc_3 - tau = 0
 c7: y_a1_proc_0 <= 1
 c8: y_a1_proc_1 <= 0
 c9: y_a1_proc_2 <= 0
 c10: y_a1_proc_3 <= 0
 c11: tau <= 0.001089324619
 c12: y_a2_proc_0 + y_a2_proc_1 + y_a2_proc_2 + y_a2_proc_3 - tau = 0
 c13: y_a2_proc_0 <= 0
 c14: y_a2_proc_1 <= 1
 c15: y_a2_proc_2 <= 0
 c16: y_a2_proc_3 <= 0
 c17: tau <= 0.001242236025
 c18: y_a3_proc_1 + y_a3_proc_2 + y_a3_proc_3 - tau = 0
 c19: y_a3_proc_1 <= 0
 c20: y_a3_proc_2 <= 1
 c21: y_a3_proc_3 <= 0
 c22: tau <= 0.003236245955
 c23: y_a4_proc_0 + y_a4_proc_1 + y_a4_proc_2 + y_a4_proc_3 - tau = 0
 c24: y_a4_proc_0 <= 0
 c25: y_a4_proc_1 <= 1
 c26: y_a4_proc_2 <= 0
 c27: y_a4_proc_3 <= 0
 c28: tau <= 0.001012145749
 c29: y_a5_proc_0 + y_a5_proc_1 + y_a5_proc_2 + y_a5_proc_3 - tau = 0
 c30: y_a5_proc_0 <= 0
 c31: y_a5_proc_1 <= 1
 c32: y_a5_proc_2 <= 0
 c33: y_a5_proc_3 <= 0
 c34: tau <= 0.001005025126
 c35: y_a6_proc_0 + y_a6_proc_1 + y_a6_proc_2 - tau = 0
 c36: y_a6_proc_0 <= 1
 c37: y_a6_proc_1 <= 0
 c38: y_a6_proc_2 <= 0
 c39: tau <= 0.000883392226
 c40: y_a7_proc_0 + y_a7_proc_1 + y_a7_proc_2 + y_a7_proc_3 - tau = 0
 c41: y_a7_proc_0 <= 0
 c42: y_a7_proc_1 <= 1
 c43: y_a7_proc_2 <= 0
 c44: y_a7_proc_3 <= 0
 c45: tau <= 0.001043841336
 c46: y_a8_proc_0 + y_a8_proc_1 + y_a8_proc_2 - tau = 0
 c47: y_a8_proc_0 <= 0
 c48: y_a8_proc_1 <= 1
 c49: y_a8_proc_2 <= 0
 c50: tau <= 0.001184834123
 c51: y_a9_proc_0 + y_a9_proc_1 + y_a9_proc_2 + y_a9_proc_3 - tau = 0
 c52: y_a9_proc_0 <= 0
 c53: y_a9_proc_1 <= 1
 c54: y_a9_proc_2 <= 0
 c55: y_a9_proc_3 <= 0
 c56: tau <= 0.001158748552
 c57: y_a10_proc_0 + y_a10_proc_1 + y_a10_proc_2 + y_a10_proc_3 - tau = 0
 c58: y_a10_proc_0 <= 0
 c59: y_a10_proc_1 <= 1
 c60: y_a10_proc_2 <= 0
 c61: y_a10_proc_3 <= 0
 c62: tau <= 0.000798722045
 c63: y_a11_proc_1 + y_a11_proc_2 + y_a11_proc_3 - tau = 0
 c64: y_a11_proc_1 <= 0
 c65: y_a11_proc_2 <= 1
 c66: y_a11_proc_3 <= 0
 c67: tau <= 0.001536098310
 c68: y_a12_proc_0 + y_a12_proc_1 - tau = 0
 c69: y_a12_proc_0 <= 1
 c70: y_a12_proc_1 <= 0
 c71: tau <= 0.001287001287
 c72: y_a13_proc_0 + y_a13_proc_1 + y_a13_proc_2 + y_a13_proc_3 - tau = 0
 c73: y_a13_proc_0 <= 0
 c74: y_a13_proc_1 <= 0
 c75: y_a13_proc_2 <= 0
 c76: y_a13_proc_3 <= 1
 c77: tau <= 0.000837520938
 c78: y_a14_proc_0 + y_a14_proc_1 + y_a14_proc_2 + y_a14_proc_3 - tau = 0
 c79: y_a14_proc_0 <= 1
 c80: y_a14_proc_1 <= 0
 c81: y_a14_proc_2 <= 0
 c82: y_a14_proc_3 <= 0
 c83: u_a0 - u_a1 - 740 y_a1_proc_0 - 1036 y_a1_proc_1 - 715 y_a1_proc_2
      - 1146 y_a1_proc_3 >= 0
 c84: u_a0 - u_a2 - 671 y_a2_proc_0 - 918 y_a2_proc_1 - 933 y_a2_proc_2
      - 974 y_a2_proc_3 >= 0
 c85: u_a2 - u_a3 - 1208 y_a3_proc_1 - 805 y_a3_proc_2 - 892 y_a3_proc_3 >= 0
 c86: u_a4 - u_a3 - 1208 y_a3_proc_1 - 805 y_a3_proc_2 - 892 y_a3_proc_3 >= 0
 c87: u_a1 - u_a5 - 1141 y_a5_proc_0 - 988 y_a5_proc_1 - 1264 y_a5_proc_2
      - 1038 y_a5_proc_3 >= -1
 c88: u_a1 - u_a6 - 995 y_a6_proc_0 - 871 y_a6_proc_1 - 1132 y_a6_proc_2 >= 0
 c89: u_a7 - u_a3 - 1208 y_a3_proc_1 - 805 y_a3_proc_2 - 892 y_a3_proc_3 >= 0
 c90: u_a3 - u_a8 - 862 y_a8_proc_0 - 958 y_a8_proc_1 - 541 y_a8_proc_2 >= -1
 c91: u_a2 - u_a9 - 1011 y_a9_proc_0 - 844 y_a9_proc_1 - 838 y_a9_proc_2
      - 974 y_a9_proc_3 >= -1
 c92: u_a9 - u_a10 - 944 y_a10_proc_0 - 863 y_a10_proc_1 - 608 y_a10_proc_2
      - 588 y_a10_proc_3 >= 0
 c93: u_a3 - u_a11 - 1063 y_a11_proc_1 - 1252 y_a11_proc_2 - 884 y_a11_proc_3
       >= -2
 c94: u_a1 - u_a12 - 651 y_a12_proc_0 - 835 y_a12_proc_1 >= 0
 c95: u_a13 - u_a11 - 1063 y_a11_proc_1 - 1252 y_a11_proc_2 - 884 y_a11_proc_3
       >= 0
 c96: u_a14 - u_a13 - 987 y_a13_proc_0 - 980 y_a13_proc_1 - 767 y_a13_proc_2
      - 777 y_a13_proc_3 >= -1
 c97: u_a9 - u_a0 - 567 y_a0_proc_0 - 601 y_a0_proc_3 >= 0
 c98: u_a8 - u_a13 - 987 y_a13_proc_0 - 980 y_a13_proc_1 - 767 y_a13_proc_2
      - 777 y_a13_proc_3 >= -1
 c99: u_a9 - u_a11 - 1063 y_a11_proc_1 - 1252 y_a11_proc_2 - 884 y_a11_proc_3
       >= 0
 c100: u_a11 - u_a10 - 944 y_a10_proc_0 - 863 y_a10_proc_1 - 608 y_a10_proc_2
       - 588 y_a10_proc_3 >= 0
 c101: u_a14 - u_a7 - 1237 y_a7_proc_0 - 1132 y_a7_proc_1 - 950 y_a7_proc_2
       - 774 y_a7_proc_3 >= 0
 c102: u_a12 - u_a14 - 1194 y_a14_proc_0 - 1251 y_a14_proc_1 - 654 y_a14_proc_2
       - 1184 y_a14_proc_3 >= 0
 c103: u_a0 - u_a6 - 995 y_a6_proc_0 - 871 y_a6_proc_1 - 1132 y_a6_proc_2 >= 0
 c104: u_a5 - u_a0 - 567 y_a0_proc_0 - 601 y_a0_proc_3 >= 0
 c105: u_a10 - u_a14 - 1194 y_a14_proc_0 - 1251 y_a14_proc_1 - 654 y_a14_proc_2
       - 1184 y_a14_proc_3 >= -1
 c106: u_a4 - u_a14 - 1194 y_a14_proc_0 - 1251 y_a14_proc_1 - 654 y_a14_proc_2
       - 1184 y_a14_proc_3 >= -1
 c107: - 944 y_a10_proc_0 - 863 y_a10_proc_1 - 608 y_a10_proc_2
       - 588 y_a10_proc_3 >= -1
 c108: u_a13 - u_a12 - 651 y_a12_proc_0 - 835 y_a12_proc_1 >= 0
 c109: u_a7 - u_a8 - 862 y_a8_proc_0 - 958 y_a8_proc_1 - 541 y_a8_proc_2 >= 0
 c110: u_a10 - u_a4 - 1287 y_a4_proc_0 - 309 y_a4_proc_1 - 1294 y_a4_proc_2
       - 796 y_a4_proc_3 >= -1
 c111: u_a1 - u_a0 - 567 y_a0_proc_0 >= -1
 c112: u_a1 - u_a0 - 601 y_a0_proc_3 >= -2589
 c113: u_a0 - u_a1 - 740 y_a1_proc_0 >= 0
 c114: u_a0 - u_a1 - 1146 y_a1_proc_3 >= -2588
 c115: u_a2 - u_a0 - 567 y_a0_proc_0 >= -2589
 c116: u_a2 - u_a0 - 601 y_a0_proc_3 >= -3883
 c117: u_a0 - u_a2 - 671 y_a2_proc_0 >= 0
 c118: u_a0 - u_a2 - 974 y_a2_proc_3 >= -1294
 c119: u_a3 - u_a0 - 601 y_a0_proc_3 >= -5179
 c120: u_a0 - u_a3 - 892 y_a3_proc_3 >= 2
 c121: u_a4 - u_a0 - 567 y_a0_proc_0 >= -2590
 c122: u_a4 - u_a0 - 601 y_a0_proc_3 >= -3884
 c123: u_a0 - u_a4 - 1287 y_a4_proc_0 >= 1
 c124: u_a0 - u_a4 - 796 y_a4_proc_3 >= -1293
 c125: u_a5 - u_a0 - 567 y_a0_proc_0 >= -2588
 c126: u_a5 - u_a0 - 601 y_a0_proc_3 >= -3882
 c127: u_a0 - u_a5 - 1141 y_a5_proc_0 >= -1
 c128: u_a0 - u_a5 - 1038 y_a5_proc_3 >= -1295
 c129: u_a6 - u_a0 - 567 y_a0_proc_0 >= -1000000000
 c130: u_a0 - u_a6 - 995 y_a6_proc_0 >= 999999999
 c131: u_a7 - u_a0 - 567 y_a0_proc_0 >= -2590
 c132: u_a7 - u_a0 - 601 y_a0_proc_3 >= -3884
 c133: u_a0 - u_a7 - 1237 y_a7_proc_0 >= 1
 c134: u_a0 - u_a7 - 774 y_a7_proc_3 >= -1293
 c135: u_a8 - u_a0 - 567 y_a0_proc_0 >= -2590
 c136: u_a0 - u_a8 - 862 y_a8_proc_0 >= 1
 c137: u_a9 - u_a0 - 567 y_a0_proc_0 >= -2588
 c138: u_a9 - u_a0 - 601 y_a0_proc_3 >= -3882
 c139: u_a0 - u_a9 - 1011 y_a9_proc_0 >= -1
 c140: u_a0 - u_a9 - 974 y_a9_proc_3 >= -1295
 c141: u_a10 - u_a0 - 567 y_a0_proc_0 >= -2591
 c142: u_a10 - u_a0 - 601 y_a0_proc_3 >= -3885
 c143: u_a0 - u_a10 - 944 y_a10_proc_0 >= 2
 c144: u_a0 - u_a10 - 588 y_a10_proc_3 >= -1292
 c145: u_a11 - u_a0 - 601 y_a0_proc_3 >= -5179
 c146: u_a0 - u_a11 - 884 y_a11_proc_3 >= 2
 c147: u_a12 - u_a0 - 567 y_a0_proc_0 >= -1
 c148: u_a0 - u_a12 - 651 y_a12_proc_0 >= 0
 c149: u_a13 - u_a0 - 567 y_a0_proc_0 >= -2589
 c150: u_a13 - u_a0 - 601 y_a0_proc_3 >= -2589
 c151: u_a0 - u_a13 - 987 y_a13_proc_0 >= 0
 c152: u_a0 - u_a13 - 777 y_a13_proc_3 >= 0
 c153: u_a14 - u_a0 - 567 y_a0_proc_0 >= -2
 c154: u_a14 - u_a0 - 601 y_a0_proc_3 >= -2590
 c155: u_a0 - u_a14 - 1194 y_a14_proc_0 >= 1
 c156: u_a0 - u_a14 - 1184 y_a14_proc_3 >= -2587
 c157: u_a2 - u_a1 - 740 y_a1_proc_0 >= -2589
 c158: u_a2 - u_a1 - 715 y_a1_proc_2 >= -3883
 c159: u_a2 - u_a1 - 1036 y_a1_proc_1 >= -2589
 c160: u_a2 - u_a1 - 1146 y_a1_proc_3 >= -3883
 c161: u_a1 - u_a2 - 671 y_a2_proc_0 >= 0
 c162: u_a1 - u_a2 - 933 y_a2_proc_2 >= -1294
 c163: u_a1 - u_a2 - 918 y_a2_proc_1 >= 0
 c164: u_a1 - u_a2 - 974 y_a2_proc_3 >= -1294
 c165: u_a3 - u_a1 - 715 y_a1_proc_2 >= -2591
 c166: u_a3 - u_a1 - 1036 y_a1_proc_1 >= -3885
 c167: u_a3 - u_a1 - 1146 y_a1_proc_3 >= -3885
 c168: u_a1 - u_a3 - 805 y_a3_proc_2 >= 2
 c169: u_a1 - u_a3 - 1208 y_a3_proc_1 >= -1292
 c170: u_a1 - u_a3 - 892 y_a3_proc_3 >= -1292
 c171: u_a4 - u_a1 - 740 y_a1_proc_0 >= -2590
 c172: u_a4 - u_a1 - 715 y_a1_proc_2 >= -3884
 c173: u_a4 - u_a1 - 1036 y_a1_proc_1 >= -2590
 c174: u_a4 - u_a1 - 1146 y_a1_proc_3 >= -3884
 c175: u_a1 - u_a4 - 1287 y_a4_proc_0 >= 1
 c176: u_a1 - u_a4 - 1294 y_a4_proc_2 >= -1293
 c177: u_a1 - u_a4 - 309 y_a4_proc_1 >= 1
 c178: u_a1 - u_a4 - 796 y_a4_proc_3 >= -1293
 c179: u_a5 - u_a1 - 740 y_a1_proc_0 >= -2587
 c180: u_a5 - u_a1 - 715 y_a1_proc_2 >= -3881
 c181: u_a5 - u_a1 - 1036 y_a1_proc_1 >= -2587
 c182: u_a5 - u_a1 - 1146 y_a1_proc_3 >= -3881
 c183: u_a1 - u_a5 - 1141 y_a5_proc_0 >= -2
 c184: u_a1 - u_a5 - 1264 y_a5_proc_2 >= -1296
 c185: u_a1 - u_a5 - 988 y_a5_proc_1 >= -2
 c186: u_a1 - u_a5 - 1038 y_a5_proc_3 >= -1296
 c187: u_a6 - u_a1 - 740 y_a1_proc_0 >= -1000000000
 c188: u_a6 - u_a1 - 715 y_a1_proc_2 >= -1000002588
 c189: u_a6 - u_a1 - 1036 y_a1_proc_1 >= -1000002588
 c190: u_a1 - u_a6 - 995 y_a6_proc_0 >= 999999999
 c191: u_a1 - u_a6 - 1132 y_a6_proc_2 >= 999997411
 c192: u_a1 - u_a6 - 871 y_a6_proc_1 >= 999997411
 c193: u_a7 - u_a1 - 740 y_a1_proc_0 >= -2590
 c194: u_a7 - u_a1 - 715 y_a1_proc_2 >= -3884
 c195: u_a7 - u_a1 - 1036 y_a1_proc_1 >= -2590
 c196: u_a7 - u_a1 - 1146 y_a1_proc_3 >= -3884
 c197: u_a1 - u_a7 - 1237 y_a7_proc_0 >= 1
 c198: u_a1 - u_a7 - 950 y_a7_proc_2 >= -1293
 c199: u_a1 - u_a7 - 1132 y_a7_proc_1 >= 1
 c200: u_a1 - u_a7 - 774 y_a7_proc_3 >= -1293
 c201: u_a8 - u_a1 - 740 y_a1_proc_0 >= -2590
 c202: u_a8 - u_a1 - 715 y_a1_proc_2 >= -3884
 c203: u_a8 - u_a1 - 1036 y_a1_proc_1 >= -2590
 c204: u_a1 - u_a8 - 862 y_a8_proc_0 >= 1
 c205: u_a1 - u_a8 - 541 y_a8_proc_2 >= -1293
 c206: u_a1 - u_a8 - 958 y_a8_proc_1 >= 1
 c207: u_a9 - u_a1 - 740 y_a1_proc_0 >= -2588
 c208: u_a9 - u_a1 - 715 y_a1_proc_2 >= -3882
 c209: u_a9 - u_a1 - 1036 y_a1_proc_1 >= -2588
 c210: u_a9 - u_a1 - 1146 y_a1_proc_3 >= -3882
 c211: u_a1 - u_a9 - 1011 y_a9_proc_0 >= -1
 c212: u_a1 - u_a9 - 838 y_a9_proc_2 >= -1295
 c213: u_a1 - u_a9 - 844 y_a9_proc_1 >= -1
 c214: u_a1 - u_a9 - 974 y_a9_proc_3 >= -1295
 c215: u_a10 - u_a1 - 740 y_a1_proc_0 >= -2591
 c216: u_a10 - u_a1 - 715 y_a1_proc_2 >= -3885
 c217: u_a10 - u_a1 - 1036 y_a1_proc_1 >= -2591
 c218: u_a10 - u_a1 - 1146 y_a1_proc_3 >= -3885
 c219: u_a1 - u_a10 - 944 y_a10_proc_0 >= 2
 c220: u_a1 - u_a10 - 608 y_a10_proc_2 >= -1292
 c221: u_a1 - u_a10 - 863 y_a10_proc_1 >= 2
 c222: u_a1 - u_a10 - 588 y_a10_proc_3 >= -1292
 c223: u_a11 - u_a1 - 715 y_a1_proc_2 >= -2591
 c224: u_a11 - u_a1 - 1036 y_a1_proc_1 >= -3885
 c225: u_a11 - u_a1 - 1146 y_a1_proc_3 >= -3885
 c226: u_a1 - u_a11 - 1252 y_a11_proc_2 >= 2
 c227: u_a1 - u_a11 - 1063 y_a11_proc_1 >= -1292
 c228: u_a1 - u_a11 - 884 y_a11_proc_3 >= -1292
 c229: u_a12 - u_a1 - 740 y_a1_proc_0 >= -1
 c230: u_a12 - u_a1 - 1036 y_a1_proc_1 >= -2589
 c231: u_a1 - u_a12 - 651 y_a12_proc_0 >= 0
 c232: u_a1 - u_a12 - 835 y_a12_proc_1 >= -2588
 c233: u_a13 - u_a1 - 740 y_a1_proc_0 >= -2589
 c234: u_a13 - u_a1 - 715 y_a1_proc_2 >= -3883
 c235: u_a13 - u_a1 - 1036 y_a1_proc_1 >= -3883
 c236: u_a13 - u_a1 - 1146 y_a1_proc_3 >= -2589
 c237: u_a1 - u_a13 - 987 y_a13_proc_0 >= 0
 c238: u_a1 - u_a13 - 767 y_a13_proc_2 >= -1294
 c239: u_a1 - u_a13 - 980 y_a13_proc_1 >= -1294
 c240: u_a1 - u_a13 - 777 y_a13_proc_3 >= 0
 c241: u_a14 - u_a1 - 740 y_a1_proc_0 >= -2
 c242: u_a14 - u_a1 - 715 y_a1_proc_2 >= -2590
 c243: u_a14 - u_a1 - 1036 y_a1_proc_1 >= -2590
 c244: u_a14 - u_a1 - 1146 y_a1_proc_3 >= -2590
 c245: u_a1 - u_a14 - 1194 y_a14_proc_0 >= 1
 c246: u_a1 - u_a14 - 654 y_a14_proc_2 >= -2587
 c247: u_a1 - u_a14 - 1251 y_a14_proc_1 >= -2587
 c248: u_a1 - u_a14 - 1184 y_a14_proc_3 >= -2587
 c249: u_a3 - u_a2 - 933 y_a2_proc_2 >= -2590
 c250: u_a3 - u_a2 - 918 y_a2_proc_1 >= -2590
 c251: u_a3 - u_a2 - 974 y_a2_proc_3 >= -3884
 c252: u_a2 - u_a3 - 805 y_a3_proc_2 >= 1
 c253: u_a2 - u_a3 - 1208 y_a3_proc_1 >= 1
 c254: u_a2 - u_a3 - 892 y_a3_proc_3 >= -1293
 c255: u_a4 - u_a2 - 671 y_a2_proc_0 >= -2589
 c256: u_a4 - u_a2 - 933 y_a2_proc_2 >= -2589
 c257: u_a4 - u_a2 - 918 y_a2_proc_1 >= -1
 c258: u_a4 - u_a2 - 974 y_a2_proc_3 >= -2589
 c259: u_a2 - u_a4 - 1287 y_a4_proc_0 >= -2588
 c260: u_a2 - u_a4 - 1294 y_a4_proc_2 >= -2588
 c261: u_a2 - u_a4 - 309 y_a4_proc_1 >= 0
 c262: u_a2 - u_a4 - 796 y_a4_proc_3 >= -2588
 c263: u_a5 - u_a2 - 671 y_a2_proc_0 >= -2587
 c264: u_a5 - u_a2 - 933 y_a2_proc_2 >= -2587
 c265: u_a5 - u_a2 - 918 y_a2_proc_1 >= 1
 c266: u_a5 - u_a2 - 974 y_a2_proc_3 >= -2587
 c267: u_a2 - u_a5 - 1141 y_a5_proc_0 >= -2590
 c268: u_a2 - u_a5 - 1264 y_a5_proc_2 >= -2590
 c269: u_a2 - u_a5 - 988 y_a5_proc_1 >= -2
 c270: u_a2 - u_a5 - 1038 y_a5_proc_3 >= -2590
 c271: u_a6 - u_a2 - 671 y_a2_proc_0 >= -1000001294
 c272: u_a6 - u_a2 - 933 y_a2_proc_2 >= -1000002588
 c273: u_a6 - u_a2 - 918 y_a2_proc_1 >= -1000001294
 c274: u_a2 - u_a6 - 995 y_a6_proc_0 >= 999998705
 c275: u_a2 - u_a6 - 1132 y_a6_proc_2 >= 999997411
 c276: u_a2 - u_a6 - 871 y_a6_proc_1 >= 999998705
 c277: u_a7 - u_a2 - 671 y_a2_proc_0 >= -2589
 c278: u_a7 - u_a2 - 933 y_a2_proc_2 >= -2589
 c279: u_a7 - u_a2 - 918 y_a2_proc_1 >= -1
 c280: u_a7 - u_a2 - 974 y_a2_proc_3 >= -2589
 c281: u_a2 - u_a7 - 1237 y_a7_proc_0 >= -2588
 c282: u_a2 - u_a7 - 950 y_a7_proc_2 >= -2588
 c283: u_a2 - u_a7 - 1132 y_a7_proc_1 >= 0
 c284: u_a2 - u_a7 - 774 y_a7_proc_3 >= -2588
 c285: u_a8 - u_a2 - 671 y_a2_proc_0 >= -2589
 c286: u_a8 - u_a2 - 933 y_a2_proc_2 >= -2589
 c287: u_a8 - u_a2 - 918 y_a2_proc_1 >= -1
 c288: u_a2 - u_a8 - 862 y_a8_proc_0 >= -2588
 c289: u_a2 - u_a8 - 541 y_a8_proc_2 >= -2588
 c290: u_a2 - u_a8 - 958 y_a8_proc_1 >= 0
 c291: u_a9 - u_a2 - 671 y_a2_proc_0 >= -2588
 c292: u_a9 - u_a2 - 933 y_a2_proc_2 >= -2588
 c293: u_a9 - u_a2 - 918 y_a2_proc_1 >= 0
 c294: u_a9 - u_a2 - 974 y_a2_proc_3 >= -2588
 c295: u_a2 - u_a9 - 1011 y_a9_proc_0 >= -2589
 c296: u_a2 - u_a9 - 838 y_a9_proc_2 >= -2589
 c297: u_a2 - u_a9 - 844 y_a9_proc_1 >= -1
 c298: u_a2 - u_a9 - 974 y_a9_proc_3 >= -2589
 c299: u_a10 - u_a2 - 671 y_a2_proc_0 >= -2590
 c300: u_a10 - u_a2 - 933 y_a2_proc_2 >= -2590
 c301: u_a10 - u_a2 - 918 y_a2_proc_1 >= -2
 c302: u_a10 - u_a2 - 974 y_a2_proc_3 >= -2590
 c303: u_a2 - u_a10 - 944 y_a10_proc_0 >= -2587
 c304: u_a2 - u_a10 - 608 y_a10_proc_2 >= -2587
 c305: u_a2 - u_a10 - 863 y_a10_proc_1 >= 1
 c306: u_a2 - u_a10 - 588 y_a10_proc_3 >= -2587
 c307: u_a11 - u_a2 - 933 y_a2_proc_2 >= -2590
 c308: u_a11 - u_a2 - 918 y_a2_proc_1 >= -2590
 c309: u_a11 - u_a2 - 974 y_a2_proc_3 >= -3884
 c310: u_a2 - u_a11 - 1252 y_a11_proc_2 >= 1
 c311: u_a2 - u_a11 - 1063 y_a11_proc_1 >= 1
 c312: u_a2 - u_a11 - 884 y_a11_proc_3 >= -1293
 c313: u_a12 - u_a2 - 671 y_a2_proc_0 >= -2588
 c314: u_a12 - u_a2 - 918 y_a2_proc_1 >= -2588
 c315: u_a2 - u_a12 - 651 y_a12_proc_0 >= -1
 c316: u_a2 - u_a12 - 835 y_a12_proc_1 >= -1
 c317: u_a13 - u_a2 - 671 y_a2_proc_0 >= -3882
 c318: u_a13 - u_a2 - 933 y_a2_proc_2 >= -3882
 c319: u_a13 - u_a2 - 918 y_a2_proc_1 >= -2588
 c320: u_a13 - u_a2 - 974 y_a2_proc_3 >= -2588
 c321: u_a2 - u_a13 - 987 y_a13_proc_0 >= -1295
 c322: u_a2 - u_a13 - 767 y_a13_proc_2 >= -1295
 c323: u_a2 - u_a13 - 980 y_a13_proc_1 >= -1
 c324: u_a2 - u_a13 - 777 y_a13_proc_3 >= -1
 c325: u_a14 - u_a2 - 671 y_a2_proc_0 >= -2589
 c326: u_a14 - u_a2 - 933 y_a2_proc_2 >= -3883
 c327: u_a14 - u_a2 - 918 y_a2_proc_1 >= -2589
 c328: u_a14 - u_a2 - 974 y_a2_proc_3 >= -3883
 c329: u_a2 - u_a14 - 1194 y_a14_proc_0 >= 0
 c330: u_a2 - u_a14 - 654 y_a14_proc_2 >= -1294
 c331: u_a2 - u_a14 - 1251 y_a14_proc_1 >= 0
 c332: u_a2 - u_a14 - 1184 y_a14_proc_3 >= -1294
 c333: u_a4 - u_a3 - 805 y_a3_proc_2 >= -2587
 c334: u_a4 - u_a3 - 1208 y_a3_proc_1 >= -2587
 c335: u_a4 - u_a3 - 892 y_a3_proc_3 >= -3881
 c336: u_a3 - u_a4 - 1294 y_a4_proc_2 >= -2
 c337: u_a3 - u_a4 - 309 y_a4_proc_1 >= -2
 c338: u_a3 - u_a4 - 796 y_a4_proc_3 >= -1296
 c339: u_a5 - u_a3 - 805 y_a3_proc_2 >= -2585
 c340: u_a5 - u_a3 - 1208 y_a3_proc_1 >= -2585
 c341: u_a5 - u_a3 - 892 y_a3_proc_3 >= -3879
 c342: u_a3 - u_a5 - 1264 y_a5_proc_2 >= -4
 c343: u_a3 - u_a5 - 988 y_a5_proc_1 >= -4
 c344: u_a3 - u_a5 - 1038 y_a5_proc_3 >= -1298
 c345: u_a6 - u_a3 - 805 y_a3_proc_2 >= -1000001294
 c346: u_a6 - u_a3 - 1208 y_a3_proc_1 >= -1000002588
 c347: u_a3 - u_a6 - 1132 y_a6_proc_2 >= 999998705
 c348: u_a3 - u_a6 - 871 y_a6_proc_1 >= 999997411
 c349: u_a7 - u_a3 - 805 y_a3_proc_2 >= -2587
 c350: u_a7 - u_a3 - 1208 y_a3_proc_1 >= -2587
 c351: u_a7 - u_a3 - 892 y_a3_proc_3 >= -3881
 c352: u_a3 - u_a7 - 950 y_a7_proc_2 >= -2
 c353: u_a3 - u_a7 - 1132 y_a7_proc_1 >= -2
 c354: u_a3 - u_a7 - 774 y_a7_proc_3 >= -1296
 c355: u_a8 - u_a3 - 805 y_a3_proc_2 >= -2587
 c356: u_a8 - u_a3 - 1208 y_a3_proc_1 >= -2587
 c357: u_a3 - u_a8 - 541 y_a8_proc_2 >= -2
 c358: u_a3 - u_a8 - 958 y_a8_proc_1 >= -2
 c359: u_a9 - u_a3 - 805 y_a3_proc_2 >= -2586
 c360: u_a9 - u_a3 - 1208 y_a3_proc_1 >= -2586
 c361: u_a9 - u_a3 - 892 y_a3_proc_3 >= -3880
 c362: u_a3 - u_a9 - 838 y_a9_proc_2 >= -3
 c363: u_a3 - u_a9 - 844 y_a9_proc_1 >= -3
 c364: u_a3 - u_a9 - 974 y_a9_proc_3 >= -1297
 c365: u_a10 - u_a3 - 805 y_a3_proc_2 >= -2588
 c366: u_a10 - u_a3 - 1208 y_a3_proc_1 >= -2588
 c367: u_a10 - u_a3 - 892 y_a3_proc_3 >= -3882
 c368: u_a3 - u_a10 - 608 y_a10_proc_2 >= -1
 c369: u_a3 - u_a10 - 863 y_a10_proc_1 >= -1
 c370: u_a3 - u_a10 - 588 y_a10_proc_3 >= -1295
 c371: u_a11 - u_a3 - 805 y_a3_proc_2 >= 0
 c372: u_a11 - u_a3 - 1208 y_a3_proc_1 >= -2588
 c373: u_a11 - u_a3 - 892 y_a3_proc_3 >= -2588
 c374: u_a3 - u_a11 - 1252 y_a11_proc_2 >= -1
 c375: u_a3 - u_a11 - 1063 y_a11_proc_1 >= -2589
 c376: u_a3 - u_a11 - 884 y_a11_proc_3 >= -2589
 c377: u_a12 - u_a3 - 1208 y_a3_proc_1 >= -5175
 c378: u_a3 - u_a12 - 835 y_a12_proc_1 >= -2
 c379: u_a13 - u_a3 - 805 y_a3_proc_2 >= -2587
 c380: u_a13 - u_a3 - 1208 y_a3_proc_1 >= -3881
 c381: u_a13 - u_a3 - 892 y_a3_proc_3 >= -2587
 c382: u_a3 - u_a13 - 767 y_a13_proc_2 >= -2
 c383: u_a3 - u_a13 - 980 y_a13_proc_1 >= -1296
 c384: u_a3 - u_a13 - 777 y_a13_proc_3 >= -2
 c385: u_a14 - u_a3 - 805 y_a3_proc_2 >= -2587
 c386: u_a14 - u_a3 - 1208 y_a3_proc_1 >= -3881
 c387: u_a14 - u_a3 - 892 y_a3_proc_3 >= -3881
 c388: u_a3 - u_a14 - 654 y_a14_proc_2 >= -2
 c389: u_a3 - u_a14 - 1251 y_a14_proc_1 >= -1296
 c390: u_a3 - u_a14 - 1184 y_a14_proc_3 >= -1296
 c391: u_a5 - u_a4 - 1287 y_a4_proc_0 >= -2586
 c392: u_a5 - u_a4 - 1294 y_a4_proc_2 >= -2586
 c393: u_a5 - u_a4 - 309 y_a4_proc_1 >= 2
 c394: u_a5 - u_a4 - 796 y_a4_proc_3 >= -2586
 c395: u_a4 - u_a5 - 1141 y_a5_proc_0 >= -2591
 c396: u_a4 - u_a5 - 1264 y_a5_proc_2 >= -2591
 c397: u_a4 - u_a5 - 988 y_a5_proc_1 >= -3
 c398: u_a4 - u_a5 - 1038 y_a5_proc_3 >= -2591
 c399: u_a6 - u_a4 - 1287 y_a4_proc_0 >= -1000001294
 c400: u_a6 - u_a4 - 1294 y_a4_proc_2 >= -1000002588
 c401: u_a6 - u_a4 - 309 y_a4_proc_1 >= -1000001294
 c402: u_a4 - u_a6 - 995 y_a6_proc_0 >= 999998705
 c403: u_a4 - u_a6 - 1132 y_a6_proc_2 >= 999997411
 c404: u_a4 - u_a6 - 871 y_a6_proc_1 >= 999998705
 c405: u_a7 - u_a4 - 1287 y_a4_proc_0 >= -2589
 c406: u_a7 - u_a4 - 1294 y_a4_proc_2 >= -2589
 c407: u_a7 - u_a4 - 309 y_a4_proc_1 >= -1
 c408: u_a7 - u_a4 - 796 y_a4_proc_3 >= -2589
 c409: u_a4 - u_a7 - 1237 y_a7_proc_0 >= -2588
 c410: u_a4 - u_a7 - 950 y_a7_proc_2 >= -2588
 c411: u_a4 - u_a7 - 1132 y_a7_proc_1 >= 0
 c412: u_a4 - u_a7 - 774 y_a7_proc_3 >= -2588
 c413: u_a8 - u_a4 - 1287 y_a4_proc_0 >= -2589
 c414: u_a8 - u_a4 - 1294 y_a4_proc_2 >= -2589
 c415: u_a8 - u_a4 - 309 y_a4_proc_1 >= -1
 c416: u_a4 - u_a8 - 862 y_a8_proc_0 >= -2588
 c417: u_a4 - u_a8 - 541 y_a8_proc_2 >= -2588
 c418: u_a4 - u_a8 - 958 y_a8_proc_1 >= 0
 c419: u_a9 - u_a4 - 1287 y_a4_proc_0 >= -2587
 c420: u_a9 - u_a4 - 1294 y_a4_proc_2 >= -2587
 c421: u_a9 - u_a4 - 309 y_a4_proc_1 >= 1
 c422: u_a9 - u_a4 - 796 y_a4_proc_3 >= -2587
 c423: u_a4 - u_a9 - 1011 y_a9_proc_0 >= -2590
 c424: u_a4 - u_a9 - 838 y_a9_proc_2 >= -2590
 c425: u_a4 - u_a9 - 844 y_a9_proc_1 >= -2
 c426: u_a4 - u_a9 - 974 y_a9_proc_3 >= -2590
 c427: u_a10 - u_a4 - 1287 y_a4_proc_0 >= -2589
 c428: u_a10 - u_a4 - 1294 y_a4_proc_2 >= -2589
 c429: u_a10 - u_a4 - 309 y_a4_proc_1 >= -1
 c430: u_a10 - u_a4 - 796 y_a4_proc_3 >= -2589
 c431: u_a4 - u_a10 - 944 y_a10_proc_0 >= -2588
 c432: u_a4 - u_a10 - 608 y_a10_proc_2 >= -2588
 c433: u_a4 - u_a10 - 863 y_a10_proc_1 >= 0
 c434: u_a4 - u_a10 - 588 y_a10_proc_3 >= -2588
 c435: u_a11 - u_a4 - 1294 y_a4_proc_2 >= -2589
 c436: u_a11 - u_a4 - 309 y_a4_proc_1 >= -2589
 c437: u_a11 - u_a4 - 796 y_a4_proc_3 >= -3883
 c438: u_a4 - u_a11 - 1252 y_a11_proc_2 >= 0
 c439: u_a4 - u_a11 - 1063 y_a11_proc_1 >= 0
 c440: u_a4 - u_a11 - 884 y_a11_proc_3 >= -1294
 c441: u_a12 - u_a4 - 1287 y_a4_proc_0 >= -2588
 c442: u_a12 - u_a4 - 309 y_a4_proc_1 >= -2588
 c443: u_a4 - u_a12 - 651 y_a12_proc_0 >= -1
 c444: u_a4 - u_a12 - 835 y_a12_proc_1 >= -1
 c445: u_a13 - u_a4 - 1287 y_a4_proc_0 >= -3882
 c446: u_a13 - u_a4 - 1294 y_a4_proc_2 >= -3882
 c447: u_a13 - u_a4 - 309 y_a4_proc_1 >= -2588
 c448: u_a13 - u_a4 - 796 y_a4_proc_3 >= -2588
 c449: u_a4 - u_a13 - 987 y_a13_proc_0 >= -1295
 c450: u_a4 - u_a13 - 767 y_a13_proc_2 >= -1295
 c451: u_a4 - u_a13 - 980 y_a13_proc_1 >= -1
 c452: u_a4 - u_a13 - 777 y_a13_proc_3 >= -1
 c453: u_a14 - u_a4 - 1287 y_a4_proc_0 >= -2588
 c454: u_a14 - u_a4 - 1294 y_a4_proc_2 >= -3882
 c455: u_a14 - u_a4 - 309 y_a4_proc_1 >= -2588
 c456: u_a14 - u_a4 - 796 y_a4_proc_3 >= -3882
 c457: u_a4 - u_a14 - 1194 y_a14_proc_0 >= -1
 c458: u_a4 - u_a14 - 654 y_a14_proc_2 >= -1295
 c459: u_a4 - u_a14 - 1251 y_a14_proc_1 >= -1
 c460: u_a4 - u_a14 - 1184 y_a14_proc_3 >= -1295
 c461: u_a6 - u_a5 - 1141 y_a5_proc_0 >= -1000001294
 c462: u_a6 - u_a5 - 1264 y_a5_proc_2 >= -1000002588
 c463: u_a6 - u_a5 - 988 y_a5_proc_1 >= -1000001294
 c464: u_a5 - u_a6 - 995 y_a6_proc_0 >= 999998705
 c465: u_a5 - u_a6 - 1132 y_a6_proc_2 >= 999997411
 c466: u_a5 - u_a6 - 871 y_a6_proc_1 >= 999998705
 c467: u_a7 - u_a5 - 1141 y_a5_proc_0 >= -2591
 c468: u_a7 - u_a5 - 1264 y_a5_proc_2 >= -2591
 c469: u_a7 - u_a5 - 988 y_a5_proc_1 >= -3
 c470: u_a7 - u_a5 - 1038 y_a5_proc_3 >= -2591
 c471: u_a5 - u_a7 - 1237 y_a7_proc_0 >= -2586
 c472: u_a5 - u_a7 - 950 y_a7_proc_2 >= -2586
 c473: u_a5 - u_a7 - 1132 y_a7_proc_1 >= 2
 c474: u_a5 - u_a7 - 774 y_a7_proc_3 >= -2586
 c475: u_a8 - u_a5 - 1141 y_a5_proc_0 >= -2591
 c476: u_a8 - u_a5 - 1264 y_a5_proc_2 >= -2591
 c477: u_a8 - u_a5 - 988 y_a5_proc_1 >= -3
 c478: u_a5 - u_a8 - 862 y_a8_proc_0 >= -2586
 c479: u_a5 - u_a8 - 541 y_a8_proc_2 >= -2586
 c480: u_a5 - u_a8 - 958 y_a8_proc_1 >= 2
 c481: u_a9 - u_a5 - 1141 y_a5_proc_0 >= -2589
 c482: u_a9 - u_a5 - 1264 y_a5_proc_2 >= -2589
 c483: u_a9 - u_a5 - 988 y_a5_proc_1 >= -1
 c484: u_a9 - u_a5 - 1038 y_a5_proc_3 >= -2589
 c485: u_a5 - u_a9 - 1011 y_a9_proc_0 >= -2588
 c486: u_a5 - u_a9 - 838 y_a9_proc_2 >= -2588
 c487: u_a5 - u_a9 - 844 y_a9_proc_1 >= 0
 c488: u_a5 - u_a9 - 974 y_a9_proc_3 >= -2588
 c489: u_a10 - u_a5 - 1141 y_a5_proc_0 >= -2592
 c490: u_a10 - u_a5 - 1264 y_a5_proc_2 >= -2592
 c491: u_a10 - u_a5 - 988 y_a5_proc_1 >= -4
 c492: u_a10 - u_a5 - 1038 y_a5_proc_3 >= -2592
 c493: u_a5 - u_a10 - 944 y_a10_proc_0 >= -2585
 c494: u_a5 - u_a10 - 608 y_a10_proc_2 >= -2585
 c495: u_a5 - u_a10 - 863 y_a10_proc_1 >= 3
 c496: u_a5 - u_a10 - 588 y_a10_proc_3 >= -2585
 c497: u_a11 - u_a5 - 1264 y_a5_proc_2 >= -2592
 c498: u_a11 - u_a5 - 988 y_a5_proc_1 >= -2592
 c499: u_a11 - u_a5 - 1038 y_a5_proc_3 >= -3886
 c500: u_a5 - u_a11 - 1252 y_a11_proc_2 >= 3
 c501: u_a5 - u_a11 - 1063 y_a11_proc_1 >= 3
 c502: u_a5 - u_a11 - 884 y_a11_proc_3 >= -1291
 c503: u_a12 - u_a5 - 1141 y_a5_proc_0 >= -2590
 c504: u_a12 - u_a5 - 988 y_a5_proc_1 >= -2590
 c505: u_a5 - u_a12 - 651 y_a12_proc_0 >= 1
 c506: u_a5 - u_a12 - 835 y_a12_proc_1 >= 1
 c507: u_a13 - u_a5 - 1141 y_a5_proc_0 >= -3884
 c508: u_a13 - u_a5 - 1264 y_a5_proc_2 >= -3884
 c509: u_a13 - u_a5 - 988 y_a5_proc_1 >= -2590
 c510: u_a13 - u_a5 - 1038 y_a5_proc_3 >= -2590
 c511: u_a5 - u_a13 - 987 y_a13_proc_0 >= -1293
 c512: u_a5 - u_a13 - 767 y_a13_proc_2 >= -1293
 c513: u_a5 - u_a13 - 980 y_a13_proc_1 >= 1
 c514: u_a5 - u_a13 - 777 y_a13_proc_3 >= 1
 c515: u_a14 - u_a5 - 1141 y_a5_proc_0 >= -2591
 c516: u_a14 - u_a5 - 1264 y_a5_proc_2 >= -3885
 c517: u_a14 - u_a5 - 988 y_a5_proc_1 >= -2591
 c518: u_a14 - u_a5 - 1038 y_a5_proc_3 >= -3885
 c519: u_a5 - u_a14 - 1194 y_a14_proc_0 >= 2
 c520: u_a5 - u_a14 - 654 y_a14_proc_2 >= -1292
 c521: u_a5 - u_a14 - 1251 y_a14_proc_1 >= 2
 c522: u_a5 - u_a14 - 1184 y_a14_proc_3 >= -1292
 c523: u_a7 - u_a6 - 995 y_a6_proc_0 >= 999998705
 c524: u_a7 - u_a6 - 1132 y_a6_proc_2 >= 999997411
 c525: u_a7 - u_a6 - 871 y_a6_proc_1 >= 999998705
 c526: u_a6 - u_a7 - 1237 y_a7_proc_0 >= -1000001294
 c527: u_a6 - u_a7 - 950 y_a7_proc_2 >= -1000002588
 c528: u_a6 - u_a7 - 1132 y_a7_proc_1 >= -1000001294
 c529: u_a8 - u_a6 - 995 y_a6_proc_0 >= 999998705
 c530: u_a8 - u_a6 - 1132 y_a6_proc_2 >= 999997411
 c531: u_a8 - u_a6 - 871 y_a6_proc_1 >= 999998705
 c532: u_a6 - u_a8 - 862 y_a8_proc_0 >= -1000001294
 c533: u_a6 - u_a8 - 541 y_a8_proc_2 >= -1000002588
 c534: u_a6 - u_a8 - 958 y_a8_proc_1 >= -1000001294
 c535: u_a9 - u_a6 - 995 y_a6_proc_0 >= 999998705
 c536: u_a9 - u_a6 - 1132 y_a6_proc_2 >= 999997411
 c537: u_a9 - u_a6 - 871 y_a6_proc_1 >= 999998705
 c538: u_a6 - u_a9 - 1011 y_a9_proc_0 >= -1000001294
 c539: u_a6 - u_a9 - 838 y_a9_proc_2 >= -1000002588
 c540: u_a6 - u_a9 - 844 y_a9_proc_1 >= -1000001294
 c541: u_a10 - u_a6 - 995 y_a6_proc_0 >= 999998705
 c542: u_a10 - u_a6 - 1132 y_a6_proc_2 >= 999997411
 c543: u_a10 - u_a6 - 871 y_a6_proc_1 >= 999998705
 c544: u_a6 - u_a10 - 944 y_a10_proc_0 >= -1000001294
 c545: u_a6 - u_a10 - 608 y_a10_proc_2 >= -1000002588
 c546: u_a6 - u_a10 - 863 y_a10_proc_1 >= -1000001294
 c547: u_a11 - u_a6 - 1132 y_a6_proc_2 >= 999998705
 c548: u_a11 - u_a6 - 871 y_a6_proc_1 >= 999997411
 c549: u_a6 - u_a11 - 1252 y_a11_proc_2 >= -1000001294
 c550: u_a6 - u_a11 - 1063 y_a11_proc_1 >= -1000002588
 c551: u_a12 - u_a6 - 995 y_a6_proc_0 >= 999999999
 c552: u_a12 - u_a6 - 871 y_a6_proc_1 >= 999997411
 c553: u_a6 - u_a12 - 651 y_a12_proc_0 >= -1000000000
 c554: u_a6 - u_a12 - 835 y_a12_proc_1 >= -1000002588
 c555: u_a13 - u_a6 - 995 y_a6_proc_0 >= 999998705
 c556: u_a13 - u_a6 - 1132 y_a6_proc_2 >= 999997411
 c557: u_a13 - u_a6 - 871 y_a6_proc_1 >= 999997411
 c558: u_a6 - u_a13 - 987 y_a13_proc_0 >= -1000001294
 c559: u_a6 - u_a13 - 767 y_a13_proc_2 >= -1000002588
 c560: u_a6 - u_a13 - 980 y_a13_proc_1 >= -1000002588
 c561: u_a14 - u_a6 - 995 y_a6_proc_0 >= 999999998
 c562: u_a14 - u_a6 - 1132 y_a6_proc_2 >= 999997410
 c563: u_a14 - u_a6 - 871 y_a6_proc_1 >= 999997410
 c564: u_a6 - u_a14 - 1194 y_a14_proc_0 >= -999999999
 c565: u_a6 - u_a14 - 654 y_a14_proc_2 >= -1000002587
 c566: u_a6 - u_a14 - 1251 y_a14_proc_1 >= -1000002587
 c567: u_a8 - u_a7 - 1237 y_a7_proc_0 >= -2589
 c568: u_a8 - u_a7 - 950 y_a7_proc_2 >= -2589
 c569: u_a8 - u_a7 - 1132 y_a7_proc_1 >= -1
 c570: u_a7 - u_a8 - 862 y_a8_proc_0 >= -2588
 c571: u_a7 - u_a8 - 541 y_a8_proc_2 >= -2588
 c572: u_a7 - u_a8 - 958 y_a8_proc_1 >= 0
 c573: u_a9 - u_a7 - 1237 y_a7_proc_0 >= -2587
 c574: u_a9 - u_a7 - 950 y_a7_proc_2 >= -2587
 c575: u_a9 - u_a7 - 1132 y_a7_proc_1 >= 1
 c576: u_a9 - u_a7 - 774 y_a7_proc_3 >= -2587
 c577: u_a7 - u_a9 - 1011 y_a9_proc_0 >= -2590
 c578: u_a7 - u_a9 - 838 y_a9_proc_2 >= -2590
 c579: u_a7 - u_a9 - 844 y_a9_proc_1 >= -2
 c580: u_a7 - u_a9 - 974 y_a9_proc_3 >= -2590
 c581: u_a10 - u_a7 - 1237 y_a7_proc_0 >= -2589
 c582: u_a10 - u_a7 - 950 y_a7_proc_2 >= -2589
 c583: u_a10 - u_a7 - 1132 y_a7_proc_1 >= -1
 c584: u_a10 - u_a7 - 774 y_a7_proc_3 >= -2589
 c585: u_a7 - u_a10 - 944 y_a10_proc_0 >= -2588
 c586: u_a7 - u_a10 - 608 y_a10_proc_2 >= -2588
 c587: u_a7 - u_a10 - 863 y_a10_proc_1 >= 0
 c588: u_a7 - u_a10 - 588 y_a10_proc_3 >= -2588
 c589: u_a11 - u_a7 - 950 y_a7_proc_2 >= -2589
 c590: u_a11 - u_a7 - 1132 y_a7_proc_1 >= -2589
 c591: u_a11 - u_a7 - 774 y_a7_proc_3 >= -3883
 c592: u_a7 - u_a11 - 1252 y_a11_proc_2 >= 0
 c593: u_a7 - u_a11 - 1063 y_a11_proc_1 >= 0
 c594: u_a7 - u_a11 - 884 y_a11_proc_3 >= -1294
 c595: u_a12 - u_a7 - 1237 y_a7_proc_0 >= -2588
 c596: u_a12 - u_a7 - 1132 y_a7_proc_1 >= -2588
 c597: u_a7 - u_a12 - 651 y_a12_proc_0 >= -1
 c598: u_a7 - u_a12 - 835 y_a12_proc_1 >= -1
 c599: u_a13 - u_a7 - 1237 y_a7_proc_0 >= -3882
 c600: u_a13 - u_a7 - 950 y_a7_proc_2 >= -3882
 c601: u_a13 - u_a7 - 1132 y_a7_proc_1 >= -2588
 c602: u_a13 - u_a7 - 774 y_a7_proc_3 >= -2588
 c603: u_a7 - u_a13 - 987 y_a13_proc_0 >= -1295
 c604: u_a7 - u_a13 - 767 y_a13_proc_2 >= -1295
 c605: u_a7 - u_a13 - 980 y_a13_proc_1 >= -1
 c606: u_a7 - u_a13 - 777 y_a13_proc_3 >= -1
 c607: u_a14 - u_a7 - 1237 y_a7_proc_0 >= -2588
 c608: u_a14 - u_a7 - 950 y_a7_proc_2 >= -3882
 c609: u_a14 - u_a7 - 1132 y_a7_proc_1 >= -2588
 c610: u_a14 - u_a7 - 774 y_a7_proc_3 >= -3882
 c611: u_a7 - u_a14 - 1194 y_a14_proc_0 >= -1
 c612: u_a7 - u_a14 - 654 y_a14_proc_2 >= -1295
 c613: u_a7 - u_a14 - 1251 y_a14_proc_1 >= -1
 c614: u_a7 - u_a14 - 1184 y_a14_proc_3 >= -1295
 c615: u_a9 - u_a8 - 862 y_a8_proc_0 >= -2587
 c616: u_a9 - u_a8 - 541 y_a8_proc_2 >= -2587
 c617: u_a9 - u_a8 - 958 y_a8_proc_1 >= 1
 c618: u_a8 - u_a9 - 1011 y_a9_proc_0 >= -2590
 c619: u_a8 - u_a9 - 838 y_a9_proc_2 >= -2590
 c620: u_a8 - u_a9 - 844 y_a9_proc_1 >= -2
 c621: u_a10 - u_a8 - 862 y_a8_proc_0 >= -2589
 c622: u_a10 - u_a8 - 541 y_a8_proc_2 >= -2589
 c623: u_a10 - u_a8 - 958 y_a8_proc_1 >= -1
 c624: u_a8 - u_a10 - 944 y_a10_proc_0 >= -2588
 c625: u_a8 - u_a10 - 608 y_a10_proc_2 >= -2588
 c626: u_a8 - u_a10 - 863 y_a10_proc_1 >= 0
 c627: u_a11 - u_a8 - 541 y_a8_proc_2 >= -2589
 c628: u_a11 - u_a8 - 958 y_a8_proc_1 >= -2589
 c629: u_a8 - u_a11 - 1252 y_a11_proc_2 >= 0
 c630: u_a8 - u_a11 - 1063 y_a11_proc_1 >= 0
 c631: u_a12 - u_a8 - 862 y_a8_proc_0 >= -2588
 c632: u_a12 - u_a8 - 958 y_a8_proc_1 >= -2588
 c633: u_a8 - u_a12 - 651 y_a12_proc_0 >= -1
 c634: u_a8 - u_a12 - 835 y_a12_proc_1 >= -1
 c635: u_a13 - u_a8 - 862 y_a8_proc_0 >= -3881
 c636: u_a13 - u_a8 - 541 y_a8_proc_2 >= -3881
 c637: u_a13 - u_a8 - 958 y_a8_proc_1 >= -2587
 c638: u_a8 - u_a13 - 987 y_a13_proc_0 >= -1296
 c639: u_a8 - u_a13 - 767 y_a13_proc_2 >= -1296
 c640: u_a8 - u_a13 - 980 y_a13_proc_1 >= -2
 c641: u_a14 - u_a8 - 862 y_a8_proc_0 >= -2588
 c642: u_a14 - u_a8 - 541 y_a8_proc_2 >= -3882
 c643: u_a14 - u_a8 - 958 y_a8_proc_1 >= -2588
 c644: u_a8 - u_a14 - 1194 y_a14_proc_0 >= -1
 c645: u_a8 - u_a14 - 654 y_a14_proc_2 >= -1295
 c646: u_a8 - u_a14 - 1251 y_a14_proc_1 >= -1
 c647: u_a10 - u_a9 - 1011 y_a9_proc_0 >= -2591
 c648: u_a10 - u_a9 - 838 y_a9_proc_2 >= -2591
 c649: u_a10 - u_a9 - 844 y_a9_proc_1 >= -3
 c650: u_a10 - u_a9 - 974 y_a9_proc_3 >= -2591
 c651: u_a9 - u_a10 - 944 y_a10_proc_0 >= -2586
 c652: u_a9 - u_a10 - 608 y_a10_proc_2 >= -2586
 c653: u_a9 - u_a10 - 863 y_a10_proc_1 >= 2
 c654: u_a9 - u_a10 - 588 y_a10_proc_3 >= -2586
 c655: u_a11 - u_a9 - 838 y_a9_proc_2 >= -2591
 c656: u_a11 - u_a9 - 844 y_a9_proc_1 >= -2591
 c657: u_a11 - u_a9 - 974 y_a9_proc_3 >= -3885
 c658: u_a9 - u_a11 - 1252 y_a11_proc_2 >= 2
 c659: u_a9 - u_a11 - 1063 y_a11_proc_1 >= 2
 c660: u_a9 - u_a11 - 884 y_a11_proc_3 >= -1292
 c661: u_a12 - u_a9 - 1011 y_a9_proc_0 >= -2589
 c662: u_a12 - u_a9 - 844 y_a9_proc_1 >= -2589
 c663: u_a9 - u_a12 - 651 y_a12_proc_0 >= 0
 c664: u_a9 - u_a12 - 835 y_a12_proc_1 >= 0
 c665: u_a13 - u_a9 - 1011 y_a9_proc_0 >= -3883
 c666: u_a13 - u_a9 - 838 y_a9_proc_2 >= -3883
 c667: u_a13 - u_a9 - 844 y_a9_proc_1 >= -2589
 c668: u_a13 - u_a9 - 974 y_a9_proc_3 >= -2589
 c669: u_a9 - u_a13 - 987 y_a13_proc_0 >= -1294
 c670: u_a9 - u_a13 - 767 y_a13_proc_2 >= -1294
 c671: u_a9 - u_a13 - 980 y_a13_proc_1 >= 0
 c672: u_a9 - u_a13 - 777 y_a13_proc_3 >= 0
 c673: u_a14 - u_a9 - 1011 y_a9_proc_0 >= -2590
 c674: u_a14 - u_a9 - 838 y_a9_proc_2 >= -3884
 c675: u_a14 - u_a9 - 844 y_a9_proc_1 >= -2590
 c676: u_a14 - u_a9 - 974 y_a9_proc_3 >= -3884
 c677: u_a9 - u_a14 - 1194 y_a14_proc_0 >= 1
 c678: u_a9 - u_a14 - 654 y_a14_proc_2 >= -1293
 c679: u_a9 - u_a14 - 1251 y_a14_proc_1 >= 1
 c680: u_a9 - u_a14 - 1184 y_a14_proc_3 >= -1293
 c681: u_a11 - u_a10 - 608 y_a10_proc_2 >= -2588
 c682: u_a11 - u_a10 - 863 y_a10_proc_1 >= -2588
 c683: u_a11 - u_a10 - 588 y_a10_proc_3 >= -3882
 c684: u_a10 - u_a11 - 1252 y_a11_proc_2 >= -1
 c685: u_a10 - u_a11 - 1063 y_a11_proc_1 >= -1
 c686: u_a10 - u_a11 - 884 y_a11_proc_3 >= -1295
 c687: u_a12 - u_a10 - 944 y_a10_proc_0 >= -2587
 c688: u_a12 - u_a10 - 863 y_a10_proc_1 >= -2587
 c689: u_a10 - u_a12 - 651 y_a12_proc_0 >= -2
 c690: u_a10 - u_a12 - 835 y_a12_proc_1 >= -2
 c691: u_a13 - u_a10 - 944 y_a10_proc_0 >= -3881
 c692: u_a13 - u_a10 - 608 y_a10_proc_2 >= -3881
 c693: u_a13 - u_a10 - 863 y_a10_proc_1 >= -2587
 c694: u_a13 - u_a10 - 588 y_a10_proc_3 >= -2587
 c695: u_a10 - u_a13 - 987 y_a13_proc_0 >= -1296
 c696: u_a10 - u_a13 - 767 y_a13_proc_2 >= -1296
 c697: u_a10 - u_a13 - 980 y_a13_proc_1 >= -2
 c698: u_a10 - u_a13 - 777 y_a13_proc_3 >= -2
 c699: u_a14 - u_a10 - 944 y_a10_proc_0 >= -2587
 c700: u_a14 - u_a10 - 608 y_a10_proc_2 >= -3881
 c701: u_a14 - u_a10 - 863 y_a10_proc_1 >= -2587
 c702: u_a14 - u_a10 - 588 y_a10_proc_3 >= -3881
 c703: u_a10 - u_a14 - 1194 y_a14_proc_0 >= -2
 c704: u_a10 - u_a14 - 654 y_a14_proc_2 >= -1296
 c705: u_a10 - u_a14 - 1251 y_a14_proc_1 >= -2
 c706: u_a10 - u_a14 - 1184 y_a14_proc_3 >= -1296
 c707: u_a12 - u_a11 - 1063 y_a11_proc_1 >= -5175
 c708: u_a11 - u_a12 - 835 y_a12_proc_1 >= -2
 c709: u_a13 - u_a11 - 1252 y_a11_proc_2 >= -2587
 c710: u_a13 - u_a11 - 1063 y_a11_proc_1 >= -3881
 c711: u_a13 - u_a11 - 884 y_a11_proc_3 >= -2587
 c712: u_a11 - u_a13 - 767 y_a13_proc_2 >= -2
 c713: u_a11 - u_a13 - 980 y_a13_proc_1 >= -1296
 c714: u_a11 - u_a13 - 777 y_a13_proc_3 >= -2
 c715: u_a14 - u_a11 - 1252 y_a11_proc_2 >= -2588
 c716: u_a14 - u_a11 - 1063 y_a11_proc_1 >= -3882
 c717: u_a14 - u_a11 - 884 y_a11_proc_3 >= -3882
 c718: u_a11 - u_a14 - 654 y_a14_proc_2 >= -1
 c719: u_a11 - u_a14 - 1251 y_a14_proc_1 >= -1295
 c720: u_a11 - u_a14 - 1184 y_a14_proc_3 >= -1295
 c721: u_a13 - u_a12 - 651 y_a12_proc_0 >= -2588
 c722: u_a13 - u_a12 - 835 y_a12_proc_1 >= -3882
 c723: u_a12 - u_a13 - 987 y_a13_proc_0 >= -1
 c724: u_a12 - u_a13 - 980 y_a13_proc_1 >= -1295
 c725: u_a14 - u_a12 - 651 y_a12_proc_0 >= -1
 c726: u_a14 - u_a12 - 835 y_a12_proc_1 >= -2589
 c727: u_a12 - u_a14 - 1194 y_a14_proc_0 >= 0
 c728: u_a12 - u_a14 - 1251 y_a14_proc_1 >= -2588
 c729: u_a14 - u_a13 - 987 y_a13_proc_0 >= -2589
 c730: u_a14 - u_a13 - 767 y_a13_proc_2 >= -3883
 c731: u_a14 - u_a13 - 980 y_a13_proc_1 >= -3883
 c732: u_a14 - u_a13 - 777 y_a13_proc_3 >= -2589
 c733: u_a13 - u_a14 - 1194 y_a14_proc_0 >= 0
 c734: u_a13 - u_a14 - 654 y_a14_proc_2 >= -1294
 c735: u_a13 - u_a14 - 1251 y_a14_proc_1 >= -1294
 c736: u_a13 - u_a14 - 1184 y_a14_proc_3 >= 0

Bounds
End
